n = 10; 

m=14; 

46	16	38	16	19	24	32	29	1	26
4	24	25	2	46	4	9	4	17	8
32	46	1	47	22	36	26	41	42	38
41	2	21	43	6	29	5	16	6	8
41	45	10	2	2	32	12	10	36	25
36	14	5	36	35	16	28	34	43	39
8	36	8	40	8	15	40	28	40	14
30	35	29	45	46	24	42	47	4	38
24	18	45	27	16	1	13	13	6	45
5	5	31	5	9	6	40	41	22	23
30	2	46	29	5	7	12	24	24	8
37	39	10	22	13	8	23	34	14	7
30	31	1	8	6	3	8	44	16	10
8	36	8	40	8	15	40	28	40	14


 			
